Welcome to the CBC MILP Solver 
Version: 2.10.12 
Build Date: Aug 20 2024 

command line - /opt/homebrew/bin/cbc computational_data/real_data/lp/wdbc_trial_013_margin.lp seconds 10.0 solve solu computational_data/real_data/solutions/wdbc_trial_013_margin.sol (default strategy 1)
 CoinLpIO::readLp(): Maximization problem reformulated as minimization
Coin0009I Switching back to maximization to get correct duals etc
seconds was changed from 1e+100 to 10
Continuous objective value is 111.942 - 0.00 seconds
Cgl0003I 1 fixed, 0 tightened bounds, 38 strengthened rows, 4 substitutions
Cgl0003I 0 fixed, 0 tightened bounds, 45 strengthened rows, 0 substitutions
Cgl0003I 0 fixed, 0 tightened bounds, 26 strengthened rows, 0 substitutions
Cgl0003I 0 fixed, 0 tightened bounds, 14 strengthened rows, 0 substitutions
Cgl0003I 0 fixed, 0 tightened bounds, 6 strengthened rows, 0 substitutions
Cgl0003I 0 fixed, 0 tightened bounds, 6 strengthened rows, 0 substitutions
Cgl0003I 0 fixed, 0 tightened bounds, 5 strengthened rows, 0 substitutions
Cgl0003I 0 fixed, 0 tightened bounds, 2 strengthened rows, 0 substitutions
Cgl0004I processed model has 56 rows, 33 columns (33 integer (33 of which binary)) and 474 elements
Cbc0038I Initial state - 1 integers unsatisfied sum - 0.4
Cbc0038I Solution found of 111.009
Cbc0038I Before mini branch and bound, 32 integers at bound fixed and 0 continuous
Cbc0038I Full problem 56 rows 33 columns, reduced to 0 rows 0 columns
Cbc0038I Mini branch and bound did not improve solution (0.01 seconds)
Cbc0038I Round again with cutoff of 111.049
Cbc0038I Reduced cost fixing fixed 8 variables on major pass 2
Cbc0038I Pass   1: suminf.    0.04001 (1) obj. 111.049 iterations 11
Cbc0038I Pass   2: suminf.    0.40000 (1) obj. 111.409 iterations 3
Cbc0038I Pass   3: suminf.    0.04004 (1) obj. 111.049 iterations 18
Cbc0038I Pass   4: suminf.    0.04004 (1) obj. 111.049 iterations 4
Cbc0038I Pass   5: suminf.    0.40000 (1) obj. 111.408 iterations 1
Cbc0038I Pass   6: suminf.    0.40000 (1) obj. 111.408 iterations 9
Cbc0038I Pass   7: suminf.    0.04004 (1) obj. 111.049 iterations 9
Cbc0038I Pass   8: suminf.    0.40000 (1) obj. 111.408 iterations 2
Cbc0038I Pass   9: suminf.    2.06667 (6) obj. 111.408 iterations 14
Cbc0038I Pass  10: suminf.    0.04004 (1) obj. 111.049 iterations 15
Cbc0038I Pass  11: suminf.    0.04004 (1) obj. 111.049 iterations 0
Cbc0038I Pass  12: suminf.    0.40000 (1) obj. 111.408 iterations 5
Cbc0038I Pass  13: suminf.    0.40000 (1) obj. 111.408 iterations 4
Cbc0038I Pass  14: suminf.    0.04004 (1) obj. 111.049 iterations 14
Cbc0038I Pass  15: suminf.    0.04004 (1) obj. 111.049 iterations 12
Cbc0038I Pass  16: suminf.    0.40000 (1) obj. 111.408 iterations 2
Cbc0038I Pass  17: suminf.    0.04004 (1) obj. 111.049 iterations 6
Cbc0038I Pass  18: suminf.    1.70672 (6) obj. 111.049 iterations 14
Cbc0038I Pass  19: suminf.    0.04006 (1) obj. 111.049 iterations 11
Cbc0038I Pass  20: suminf.    0.04006 (1) obj. 111.049 iterations 0
Cbc0038I Pass  21: suminf.    0.20000 (1) obj. 111.208 iterations 4
Cbc0038I Pass  22: suminf.    0.20000 (1) obj. 111.208 iterations 16
Cbc0038I Pass  23: suminf.    0.04004 (1) obj. 111.049 iterations 8
Cbc0038I Pass  24: suminf.    0.20000 (1) obj. 111.208 iterations 1
Cbc0038I Pass  25: suminf.    0.40000 (1) obj. 111.409 iterations 16
Cbc0038I Pass  26: suminf.    0.04003 (1) obj. 111.049 iterations 12
Cbc0038I Pass  27: suminf.    0.40000 (1) obj. 111.409 iterations 3
Cbc0038I Pass  28: suminf.    0.40000 (1) obj. 111.409 iterations 12
Cbc0038I Pass  29: suminf.    0.04003 (1) obj. 111.049 iterations 9
Cbc0038I Pass  30: suminf.    0.40000 (1) obj. 111.409 iterations 1
Cbc0038I No solution found this major pass
Cbc0038I Before mini branch and bound, 13 integers at bound fixed and 0 continuous
Cbc0038I Full problem 56 rows 33 columns, reduced to 46 rows 20 columns
Cbc0038I Mini branch and bound did not improve solution (0.01 seconds)
Cbc0038I After 0.01 seconds - Feasibility pump exiting with objective of 111.009 - took 0.00 seconds
Cbc0012I Integer solution of 111.00852 found by feasibility pump after 0 iterations and 0 nodes (0.01 seconds)
Cbc0031I 1 added rows had average density of 23
Cbc0013I At root node, 6 cuts changed objective from 111.40852 to 111.00852 in 1 passes
Cbc0014I Cut generator 0 (Probing) - 3 row cuts average 2.0 elements, 0 column cuts (0 active)  in 0.000 seconds - new frequency is 1
Cbc0014I Cut generator 1 (Gomory) - 1 row cuts average 23.0 elements, 0 column cuts (0 active)  in 0.000 seconds - new frequency is 1
Cbc0014I Cut generator 2 (Knapsack) - 1 row cuts average 4.0 elements, 0 column cuts (0 active)  in 0.000 seconds - new frequency is 1
Cbc0014I Cut generator 3 (Clique) - 0 row cuts average 0.0 elements, 0 column cuts (0 active)  in 0.000 seconds - new frequency is -100
Cbc0014I Cut generator 4 (MixedIntegerRounding2) - 0 row cuts average 0.0 elements, 0 column cuts (0 active)  in 0.000 seconds - new frequency is -100
Cbc0014I Cut generator 5 (FlowCover) - 0 row cuts average 0.0 elements, 0 column cuts (0 active)  in 0.000 seconds - new frequency is -100
Cbc0014I Cut generator 6 (TwoMirCuts) - 1 row cuts average 23.0 elements, 0 column cuts (0 active)  in 0.000 seconds - new frequency is -100
Cbc0001I Search completed - best objective 111.008521, took 0 iterations and 0 nodes (0.01 seconds)
Cbc0035I Maximum depth 0, 8 variables fixed on reduced cost
Cuts at root node changed objective from 111.409 to 111.009
Probing was tried 1 times and created 3 cuts of which 0 were active after adding rounds of cuts (0.000 seconds)
Gomory was tried 1 times and created 1 cuts of which 0 were active after adding rounds of cuts (0.000 seconds)
Knapsack was tried 1 times and created 1 cuts of which 0 were active after adding rounds of cuts (0.000 seconds)
Clique was tried 1 times and created 0 cuts of which 0 were active after adding rounds of cuts (0.000 seconds)
MixedIntegerRounding2 was tried 1 times and created 0 cuts of which 0 were active after adding rounds of cuts (0.000 seconds)
FlowCover was tried 1 times and created 0 cuts of which 0 were active after adding rounds of cuts (0.000 seconds)
TwoMirCuts was tried 1 times and created 1 cuts of which 0 were active after adding rounds of cuts (0.000 seconds)
ZeroHalf was tried 1 times and created 0 cuts of which 0 were active after adding rounds of cuts (0.000 seconds)

Result - Optimal solution found

Objective value:                111.00852100
Enumerated nodes:               0
Total iterations:               0
Time (CPU seconds):             0.01
Time (Wallclock seconds):       0.01

Total time (CPU seconds):       0.01   (Wallclock seconds):       0.01

